c turning on binary mode checking
c parsing input formula with 259840 variables and 1039934 clauses
c finished parsing, read 3240478 bytes from proof file
c detected empty clause; start verification via backward checking
c 4058 of 1039934 clauses in core                            
c 1210 of 135548 lemmas in core using 32487 resolution steps
c 0 RAT lemmas in core; 168 redundant literals in core lemmas
s VERIFIED
c verification time: 1.562 seconds
